NAME : Euclidean Random Tour : n = 100, sample = 18 
COMMENT : Coordinates are generated uniformly sampled from [0, 100000] x [0, 100000] 
DIMENSION : 100 
EDGE_WEIGHT_TYPE : EUC_2D 
TOUR_SECTION 
1
90
48
74
66
49
42
89
26
15
40
13
46
23
41
20
86
29
12
81
75
84
14
94
64
91
36
80
7
9
55
35
37
25
18
4
93
22
52
16
11
43
47
53
78
30
95
31
97
28
65
60
6
24
99
3
8
100
38
57
17
2
88
79
69
96
61
33
62
83
72
5
19
87
10
82
50
67
27
39
51
73
76
45
71
21
59
70
98
92
58
77
63
68
44
85
34
56
32
54
-1
